0 47 
1 52 
2 51 
3 50 
4 50 
5 47 
6 45 
7 44 
8 43 
9 42 
10 40 
11 40 
12 38 
13 38 
14 39 
15 41 
16 38 
17 39 
18 38 
19 37 
20 37 
21 35 
22 34 
23 33 
24 33 
25 32 
26 31 
27 29 
28 27 
29 25 
30 24 
31 24 
32 24 
33 24 
34 25 
35 25 
36 24 
37 22 
38 20 
39 18 
40 20 
41 19 
42 17 
43 17 
44 14 
45 13 
46 12 
47 11 
48 5 
49 7 
50 7 
51 6 
52 5 
53 6 
54 5 
55 5 
56 4 
57 4 
58 3 
59 1 
60 1 
61 0 
62 0 

